
Gurobi 7.0.2 (win32, Python) logging started 08/06/17 07:55:50

Optimize a model with 2 rows, 2 columns and 4 nonzeros
Coefficient statistics:
  Matrix range     [2e+00, 1e+01]
  Objective range  [5e+01, 1e+02]
  Bounds range     [0e+00, 0e+00]
  RHS range        [2e+01, 3e+01]
Presolve time: 0.02s
Presolved: 2 rows, 2 columns, 4 nonzeros

Iteration    Objective       Primal Inf.    Dual Inf.      Time
       0    0.0000000e+00   5.000000e+00   0.000000e+00      0s
       2    3.2000000e+02   0.000000e+00   0.000000e+00      0s

Solved in 2 iterations and 0.05 seconds
Optimal objective  3.200000000e+02
Optimize a model with 2 rows, 2 columns and 4 nonzeros
Coefficient statistics:
  Matrix range     [2e+00, 1e+01]
  Objective range  [5e+01, 1e+02]
  Bounds range     [0e+00, 0e+00]
  RHS range        [2e+01, 3e+01]
Presolve time: 0.01s
Presolved: 2 rows, 2 columns, 4 nonzeros

Iteration    Objective       Primal Inf.    Dual Inf.      Time
       0    0.0000000e+00   5.000000e+00   0.000000e+00      0s
       2    3.2000000e+02   0.000000e+00   0.000000e+00      0s

Solved in 2 iterations and 0.03 seconds
Optimal objective  3.200000000e+02

Gurobi 7.0.2 (win32, Python) logging started 08/06/17 08:43:20

Optimize a model with 4 rows, 4 columns and 14 nonzeros
Coefficient statistics:
  Matrix range     [1e+00, 5e+02]
  Objective range  [2e+01, 8e+01]
  Bounds range     [0e+00, 0e+00]
  RHS range        [5e+00, 5e+02]
Presolve time: 0.02s
Presolved: 4 rows, 4 columns, 14 nonzeros

Iteration    Objective       Primal Inf.    Dual Inf.      Time
       0    0.0000000e+00   6.226563e+00   0.000000e+00      0s
       2    9.0000000e+01   0.000000e+00   0.000000e+00      0s

Solved in 2 iterations and 0.04 seconds
Optimal objective  9.000000000e+01

Gurobi 7.0.2 (win32, Python) logging started 08/06/17 09:10:14

Optimize a model with 7 rows, 7 columns and 35 nonzeros
Coefficient statistics:
  Matrix range     [1e+00, 1e+00]
  Objective range  [1e+00, 1e+00]
  Bounds range     [0e+00, 0e+00]
  RHS range        [1e+01, 2e+01]
Presolve time: 0.01s
Presolved: 7 rows, 7 columns, 35 nonzeros

Iteration    Objective       Primal Inf.    Dual Inf.      Time
       0    0.0000000e+00   1.050000e+02   0.000000e+00      0s
       5    2.2333333e+01   0.000000e+00   0.000000e+00      0s

Solved in 5 iterations and 0.01 seconds
Optimal objective  2.233333333e+01
Optimize a model with 7 rows, 7 columns and 35 nonzeros
Variable types: 0 continuous, 7 integer (0 binary)
Coefficient statistics:
  Matrix range     [1e+00, 1e+00]
  Objective range  [1e+00, 1e+00]
  Bounds range     [0e+00, 0e+00]
  RHS range        [1e+01, 2e+01]
Found heuristic solution: objective 35
Presolve time: 0.01s
Presolved: 7 rows, 7 columns, 35 nonzeros
Variable types: 0 continuous, 7 integer (0 binary)

Root relaxation: objective 2.233333e+01, 5 iterations, 0.00 seconds

    Nodes    |    Current Node    |     Objective Bounds      |     Work
 Expl Unexpl |  Obj  Depth IntInf | Incumbent    BestBd   Gap | It/Node Time

     0     0   22.33333    0    4   35.00000   22.33333  36.2%     -    0s
H    0     0                      23.0000000   22.33333  2.90%     -    0s

Explored 0 nodes (5 simplex iterations) in 0.06 seconds
Thread count was 4 (of 4 available processors)

Solution count 2: 23 35 
Pool objective bound 23

Optimal solution found (tolerance 1.00e-04)
Best objective 2.300000000000e+01, best bound 2.300000000000e+01, gap 0.0000%
Optimize a model with 7 rows, 7 columns and 35 nonzeros
Variable types: 0 continuous, 7 integer (0 binary)
Coefficient statistics:
  Matrix range     [1e+00, 1e+00]
  Objective range  [1e+00, 1e+00]
  Bounds range     [0e+00, 0e+00]
  RHS range        [1e+01, 2e+01]
Found heuristic solution: objective 35
Presolve time: 0.00s
Presolved: 7 rows, 7 columns, 35 nonzeros
Variable types: 0 continuous, 7 integer (0 binary)

Root relaxation: objective 2.233333e+01, 5 iterations, 0.00 seconds

    Nodes    |    Current Node    |     Objective Bounds      |     Work
 Expl Unexpl |  Obj  Depth IntInf | Incumbent    BestBd   Gap | It/Node Time

     0     0   22.33333    0    4   35.00000   22.33333  36.2%     -    0s
H    0     0                      23.0000000   22.33333  2.90%     -    0s

Explored 0 nodes (5 simplex iterations) in 0.04 seconds
Thread count was 4 (of 4 available processors)

Solution count 2: 23 35 
Pool objective bound 23

Optimal solution found (tolerance 1.00e-04)
Best objective 2.300000000000e+01, best bound 2.300000000000e+01, gap 0.0000%
Optimize a model with 7 rows, 7 columns and 35 nonzeros
Variable types: 0 continuous, 7 integer (0 binary)
Coefficient statistics:
  Matrix range     [1e+00, 1e+00]
  Objective range  [1e+00, 1e+00]
  Bounds range     [0e+00, 0e+00]
  RHS range        [1e+01, 2e+01]
Found heuristic solution: objective 35
Presolve time: 0.00s
Presolved: 7 rows, 7 columns, 35 nonzeros
Variable types: 0 continuous, 7 integer (0 binary)

Root relaxation: objective 2.233333e+01, 5 iterations, 0.00 seconds

    Nodes    |    Current Node    |     Objective Bounds      |     Work
 Expl Unexpl |  Obj  Depth IntInf | Incumbent    BestBd   Gap | It/Node Time

     0     0   22.33333    0    4   35.00000   22.33333  36.2%     -    0s
H    0     0                      23.0000000   22.33333  2.90%     -    0s

Explored 0 nodes (5 simplex iterations) in 0.02 seconds
Thread count was 4 (of 4 available processors)

Solution count 2: 23 35 
Pool objective bound 23

Optimal solution found (tolerance 1.00e-04)
Best objective 2.300000000000e+01, best bound 2.300000000000e+01, gap 0.0000%
Optimize a model with 7 rows, 7 columns and 35 nonzeros
Variable types: 0 continuous, 7 integer (0 binary)
Coefficient statistics:
  Matrix range     [1e+00, 1e+00]
  Objective range  [1e+00, 1e+00]
  Bounds range     [0e+00, 0e+00]
  RHS range        [1e+01, 2e+01]
Found heuristic solution: objective 35
Presolve time: 0.00s
Presolved: 7 rows, 7 columns, 35 nonzeros
Variable types: 0 continuous, 7 integer (0 binary)

Root relaxation: objective 2.233333e+01, 5 iterations, 0.00 seconds

    Nodes    |    Current Node    |     Objective Bounds      |     Work
 Expl Unexpl |  Obj  Depth IntInf | Incumbent    BestBd   Gap | It/Node Time

     0     0   22.33333    0    4   35.00000   22.33333  36.2%     -    0s
H    0     0                      23.0000000   22.33333  2.90%     -    0s

Explored 0 nodes (5 simplex iterations) in 0.03 seconds
Thread count was 4 (of 4 available processors)

Solution count 2: 23 35 
Pool objective bound 23

Optimal solution found (tolerance 1.00e-04)
Best objective 2.300000000000e+01, best bound 2.300000000000e+01, gap 0.0000%
Optimize a model with 7 rows, 7 columns and 35 nonzeros
Variable types: 0 continuous, 7 integer (0 binary)
Coefficient statistics:
  Matrix range     [1e+00, 1e+00]
  Objective range  [1e+00, 1e+00]
  Bounds range     [0e+00, 0e+00]
  RHS range        [1e+01, 2e+01]
Found heuristic solution: objective 35
Presolve time: 0.00s
Presolved: 7 rows, 7 columns, 35 nonzeros
Variable types: 0 continuous, 7 integer (0 binary)

Root relaxation: objective 2.233333e+01, 5 iterations, 0.00 seconds

    Nodes    |    Current Node    |     Objective Bounds      |     Work
 Expl Unexpl |  Obj  Depth IntInf | Incumbent    BestBd   Gap | It/Node Time

     0     0   22.33333    0    4   35.00000   22.33333  36.2%     -    0s
H    0     0                      23.0000000   22.33333  2.90%     -    0s

Explored 0 nodes (5 simplex iterations) in 0.06 seconds
Thread count was 4 (of 4 available processors)

Solution count 2: 23 35 
Pool objective bound 23

Optimal solution found (tolerance 1.00e-04)
Best objective 2.300000000000e+01, best bound 2.300000000000e+01, gap 0.0000%
Optimize a model with 7 rows, 7 columns and 35 nonzeros
Variable types: 0 continuous, 7 integer (0 binary)
Coefficient statistics:
  Matrix range     [1e+00, 1e+00]
  Objective range  [1e+00, 1e+00]
  Bounds range     [0e+00, 0e+00]
  RHS range        [1e+01, 2e+01]
Found heuristic solution: objective 35
Presolve time: 0.00s
Presolved: 7 rows, 7 columns, 35 nonzeros
Variable types: 0 continuous, 7 integer (0 binary)

Root relaxation: objective 2.233333e+01, 5 iterations, 0.00 seconds

    Nodes    |    Current Node    |     Objective Bounds      |     Work
 Expl Unexpl |  Obj  Depth IntInf | Incumbent    BestBd   Gap | It/Node Time

     0     0   22.33333    0    4   35.00000   22.33333  36.2%     -    0s
H    0     0                      23.0000000   22.33333  2.90%     -    0s

Explored 0 nodes (5 simplex iterations) in 0.05 seconds
Thread count was 4 (of 4 available processors)

Solution count 2: 23 35 
Pool objective bound 23

Optimal solution found (tolerance 1.00e-04)
Best objective 2.300000000000e+01, best bound 2.300000000000e+01, gap 0.0000%

Gurobi 7.0.2 (win32, Python) logging started 08/07/17 07:49:53

Optimize a model with 7 rows, 5 columns and 15 nonzeros
Coefficient statistics:
  Matrix range     [1e+00, 5e+01]
  Objective range  [1e+01, 4e+01]
  Bounds range     [0e+00, 0e+00]
  RHS range        [1e+00, 4e+01]
Presolve removed 5 rows and 0 columns
Presolve time: 0.03s
Presolved: 2 rows, 5 columns, 10 nonzeros

Iteration    Objective       Primal Inf.    Dual Inf.      Time
       0    7.8106665e+01   8.092299e-01   0.000000e+00      0s
       2    5.7449017e+01   0.000000e+00   0.000000e+00      0s

Solved in 2 iterations and 0.04 seconds
Optimal objective  5.744901720e+01

Gurobi 7.0.2 (win32, Python) logging started 08/09/17 07:34:59

Optimize a model with 13 rows, 12 columns and 45 nonzeros
Coefficient statistics:
  Matrix range     [5e-03, 1e+01]
  Objective range  [1e+00, 4e+01]
  Bounds range     [0e+00, 0e+00]
  RHS range        [1e+03, 1e+04]
Presolve removed 6 rows and 3 columns
Presolve time: 0.01s
Presolved: 7 rows, 9 columns, 27 nonzeros

Iteration    Objective       Primal Inf.    Dual Inf.      Time
       0    5.3320000e+05   5.625000e+02   0.000000e+00      0s
       4    4.0320000e+05   0.000000e+00   0.000000e+00      0s

Solved in 4 iterations and 0.02 seconds
Optimal objective  4.032000000e+05

Gurobi 7.0.2 (win32, Python) logging started 08/11/17 07:52:14

Optimize a model with 8 rows, 12 columns and 19 nonzeros
Coefficient statistics:
  Matrix range     [1e+00, 1e+00]
  Objective range  [2e+01, 5e+02]
  Bounds range     [0e+00, 0e+00]
  RHS range        [4e+01, 8e+01]
Presolve removed 8 rows and 12 columns
Presolve time: 0.05s
Presolve: All rows and columns removed
Iteration    Objective       Primal Inf.    Dual Inf.      Time
       0    1.0500000e+04   0.000000e+00   0.000000e+00      0s

Solved in 0 iterations and 0.06 seconds
Optimal objective  1.050000000e+04
Optimize a model with 8 rows, 12 columns and 19 nonzeros
Coefficient statistics:
  Matrix range     [1e+00, 1e+00]
  Objective range  [2e+01, 5e+02]
  Bounds range     [0e+00, 0e+00]
  RHS range        [4e+01, 8e+01]
Presolve removed 8 rows and 12 columns
Presolve time: 0.02s
Presolve: All rows and columns removed
Iteration    Objective       Primal Inf.    Dual Inf.      Time
       0    1.0500000e+04   0.000000e+00   0.000000e+00      0s

Solved in 0 iterations and 0.04 seconds
Optimal objective  1.050000000e+04
Optimize a model with 8 rows, 12 columns and 19 nonzeros
Coefficient statistics:
  Matrix range     [1e+00, 1e+00]
  Objective range  [2e+01, 5e+02]
  Bounds range     [0e+00, 0e+00]
  RHS range        [3e+01, 8e+01]
Presolve removed 4 rows and 0 columns
Presolve time: 0.02s
Presolved: 4 rows, 12 columns, 15 nonzeros

Iteration    Objective       Primal Inf.    Dual Inf.      Time
       0    0.0000000e+00   1.900000e+02   0.000000e+00      0s
       6    7.8450000e+04   0.000000e+00   0.000000e+00      0s

Solved in 6 iterations and 0.04 seconds
Optimal objective  7.845000000e+04

Gurobi 7.0.2 (win32, Python) logging started 08/14/17 07:27:35

Optimize a model with 8 rows, 16 columns and 32 nonzeros
Coefficient statistics:
  Matrix range     [1e+00, 1e+00]
  Objective range  [2e+00, 1e+01]
  Bounds range     [0e+00, 0e+00]
  RHS range        [1e+00, 1e+00]
Presolve removed 8 rows and 16 columns
Presolve time: 0.05s
Presolve: All rows and columns removed
Iteration    Objective       Primal Inf.    Dual Inf.      Time
       0    4.5000000e+01   0.000000e+00   0.000000e+00      0s

Solved in 0 iterations and 0.08 seconds
Optimal objective  4.500000000e+01
Optimize a model with 8 rows, 16 columns and 32 nonzeros
Variable types: 0 continuous, 16 integer (16 binary)
Coefficient statistics:
  Matrix range     [1e+00, 1e+00]
  Objective range  [2e+00, 1e+01]
  Bounds range     [1e+00, 1e+00]
  RHS range        [1e+00, 1e+00]
Found heuristic solution: objective 29
Presolve removed 8 rows and 16 columns
Presolve time: 0.00s
Presolve: All rows and columns removed

Explored 0 nodes (0 simplex iterations) in 0.03 seconds
Thread count was 1 (of 4 available processors)

Solution count 1: 45 
Pool objective bound 45

Optimal solution found (tolerance 1.00e-04)
Best objective 4.500000000000e+01, best bound 4.500000000000e+01, gap 0.0000%

Gurobi 7.0.2 (win32, Python) logging started 08/14/17 07:43:29

Optimize a model with 8 rows, 16 columns and 32 nonzeros
Variable types: 0 continuous, 16 integer (16 binary)
Coefficient statistics:
  Matrix range     [1e+00, 1e+00]
  Objective range  [2e+00, 1e+01]
  Bounds range     [1e+00, 1e+00]
  RHS range        [1e+00, 1e+00]
Found heuristic solution: objective 29
Presolve removed 8 rows and 16 columns
Presolve time: 0.00s
Presolve: All rows and columns removed

Explored 0 nodes (0 simplex iterations) in 0.03 seconds
Thread count was 1 (of 4 available processors)

Solution count 1: 45 
Pool objective bound 45

Optimal solution found (tolerance 1.00e-04)
Best objective 4.500000000000e+01, best bound 4.500000000000e+01, gap 0.0000%
Optimize a model with 8 rows, 16 columns and 32 nonzeros
Variable types: 0 continuous, 16 integer (16 binary)
Coefficient statistics:
  Matrix range     [1e+00, 1e+00]
  Objective range  [2e+00, 1e+01]
  Bounds range     [1e+00, 1e+00]
  RHS range        [1e+00, 1e+00]
Found heuristic solution: objective 29
Presolve removed 8 rows and 16 columns
Presolve time: 0.00s
Presolve: All rows and columns removed

Explored 0 nodes (0 simplex iterations) in 0.04 seconds
Thread count was 1 (of 4 available processors)

Solution count 1: 12 
Pool objective bound 12

Optimal solution found (tolerance 1.00e-04)
Best objective 1.200000000000e+01, best bound 1.200000000000e+01, gap 0.0000%
Optimize a model with 8 rows, 16 columns and 32 nonzeros
Variable types: 0 continuous, 16 integer (16 binary)
Coefficient statistics:
  Matrix range     [1e+00, 1e+00]
  Objective range  [2e+00, 1e+01]
  Bounds range     [1e+00, 1e+00]
  RHS range        [1e+00, 1e+00]
Found heuristic solution: objective 29
Presolve removed 8 rows and 16 columns
Presolve time: 0.00s
Presolve: All rows and columns removed

Explored 0 nodes (0 simplex iterations) in 0.03 seconds
Thread count was 1 (of 4 available processors)

Solution count 1: 12 
Pool objective bound 12

Optimal solution found (tolerance 1.00e-04)
Best objective 1.200000000000e+01, best bound 1.200000000000e+01, gap 0.0000%
Optimize a model with 8 rows, 16 columns and 32 nonzeros
Variable types: 0 continuous, 16 integer (16 binary)
Coefficient statistics:
  Matrix range     [1e+00, 1e+00]
  Objective range  [2e+00, 1e+01]
  Bounds range     [1e+00, 1e+00]
  RHS range        [1e+00, 1e+00]
Found heuristic solution: objective 23
Presolve time: 0.00s
Presolved: 8 rows, 16 columns, 32 nonzeros
Variable types: 0 continuous, 16 integer (16 binary)

Root relaxation: objective 1.500000e+01, 6 iterations, 0.00 seconds

    Nodes    |    Current Node    |     Objective Bounds      |     Work
 Expl Unexpl |  Obj  Depth IntInf | Incumbent    BestBd   Gap | It/Node Time

*    0     0               0      15.0000000   15.00000  0.00%     -    0s

Explored 0 nodes (6 simplex iterations) in 0.07 seconds
Thread count was 4 (of 4 available processors)

Solution count 2: 15 23 
Pool objective bound 15

Optimal solution found (tolerance 1.00e-04)
Best objective 1.500000000000e+01, best bound 1.500000000000e+01, gap 0.0000%
Optimize a model with 8 rows, 16 columns and 32 nonzeros
Variable types: 0 continuous, 16 integer (16 binary)
Coefficient statistics:
  Matrix range     [1e+00, 1e+00]
  Objective range  [2e+00, 1e+01]
  Bounds range     [1e+00, 1e+00]
  RHS range        [1e+00, 1e+00]
Found heuristic solution: objective 29
Presolve removed 8 rows and 16 columns
Presolve time: 0.00s
Presolve: All rows and columns removed

Explored 0 nodes (0 simplex iterations) in 0.02 seconds
Thread count was 1 (of 4 available processors)

Solution count 1: 12 
Pool objective bound 12

Optimal solution found (tolerance 1.00e-04)
Best objective 1.200000000000e+01, best bound 1.200000000000e+01, gap 0.0000%
Optimize a model with 8 rows, 16 columns and 32 nonzeros
Variable types: 0 continuous, 16 integer (16 binary)
Coefficient statistics:
  Matrix range     [1e+00, 1e+00]
  Objective range  [2e+00, 1e+01]
  Bounds range     [1e+00, 1e+00]
  RHS range        [1e+00, 1e+00]
Found heuristic solution: objective 23
Presolve time: 0.00s
Presolved: 8 rows, 16 columns, 32 nonzeros
Variable types: 0 continuous, 16 integer (16 binary)

Root relaxation: objective 1.500000e+01, 6 iterations, 0.00 seconds

    Nodes    |    Current Node    |     Objective Bounds      |     Work
 Expl Unexpl |  Obj  Depth IntInf | Incumbent    BestBd   Gap | It/Node Time

*    0     0               0      15.0000000   15.00000  0.00%     -    0s

Explored 0 nodes (6 simplex iterations) in 0.07 seconds
Thread count was 4 (of 4 available processors)

Solution count 2: 15 23 
Pool objective bound 15

Optimal solution found (tolerance 1.00e-04)
Best objective 1.500000000000e+01, best bound 1.500000000000e+01, gap 0.0000%
Optimize a model with 8 rows, 16 columns and 32 nonzeros
Variable types: 0 continuous, 16 integer (16 binary)
Coefficient statistics:
  Matrix range     [1e+00, 1e+00]
  Objective range  [2e+00, 1e+01]
  Bounds range     [1e+00, 1e+00]
  RHS range        [1e+00, 1e+00]
Found heuristic solution: objective 23
Presolve time: 0.00s
Presolved: 8 rows, 16 columns, 32 nonzeros
Variable types: 0 continuous, 16 integer (16 binary)

Root relaxation: objective 1.500000e+01, 6 iterations, 0.00 seconds

    Nodes    |    Current Node    |     Objective Bounds      |     Work
 Expl Unexpl |  Obj  Depth IntInf | Incumbent    BestBd   Gap | It/Node Time

*    0     0               0      15.0000000   15.00000  0.00%     -    0s

Explored 0 nodes (6 simplex iterations) in 0.04 seconds
Thread count was 4 (of 4 available processors)

Solution count 2: 15 23 
Pool objective bound 15

Optimal solution found (tolerance 1.00e-04)
Best objective 1.500000000000e+01, best bound 1.500000000000e+01, gap 0.0000%

Gurobi 7.0.2 (win32, Python) logging started 08/14/17 09:06:14

Optimize a model with 12 rows, 36 columns and 72 nonzeros
Variable types: 0 continuous, 36 integer (36 binary)
Coefficient statistics:
  Matrix range     [1e+00, 1e+00]
  Objective range  [9e+00, 1e+05]
  Bounds range     [1e+00, 1e+00]
  RHS range        [1e+00, 1e+00]
Found heuristic solution: objective 200076
Presolve time: 0.00s
Presolved: 12 rows, 36 columns, 72 nonzeros
Variable types: 0 continuous, 36 integer (36 binary)

Root relaxation: objective 7.400000e+01, 8 iterations, 0.00 seconds

    Nodes    |    Current Node    |     Objective Bounds      |     Work
 Expl Unexpl |  Obj  Depth IntInf | Incumbent    BestBd   Gap | It/Node Time

*    0     0               0      74.0000000   74.00000  0.00%     -    0s

Explored 0 nodes (8 simplex iterations) in 0.06 seconds
Thread count was 4 (of 4 available processors)

Solution count 2: 74 200076 
Pool objective bound 74

Optimal solution found (tolerance 1.00e-04)
Best objective 7.400000000000e+01, best bound 7.400000000000e+01, gap 0.0000%
Optimize a model with 12 rows, 36 columns and 72 nonzeros
Variable types: 0 continuous, 36 integer (36 binary)
Coefficient statistics:
  Matrix range     [1e+00, 1e+00]
  Objective range  [9e+00, 1e+05]
  Bounds range     [1e+00, 1e+00]
  RHS range        [1e+00, 1e+00]
Found heuristic solution: objective 200076
Presolve time: 0.00s
Presolved: 12 rows, 36 columns, 72 nonzeros
Variable types: 0 continuous, 36 integer (36 binary)

Root relaxation: objective 7.400000e+01, 8 iterations, 0.00 seconds

    Nodes    |    Current Node    |     Objective Bounds      |     Work
 Expl Unexpl |  Obj  Depth IntInf | Incumbent    BestBd   Gap | It/Node Time

*    0     0               0      74.0000000   74.00000  0.00%     -    0s

Explored 0 nodes (8 simplex iterations) in 0.05 seconds
Thread count was 4 (of 4 available processors)

Solution count 2: 74 200076 
Pool objective bound 74

Optimal solution found (tolerance 1.00e-04)
Best objective 7.400000000000e+01, best bound 7.400000000000e+01, gap 0.0000%
Optimize a model with 10 rows, 36 columns and 60 nonzeros
Variable types: 0 continuous, 36 integer (36 binary)
Coefficient statistics:
  Matrix range     [1e+00, 1e+00]
  Objective range  [9e+00, 1e+05]
  Bounds range     [1e+00, 1e+00]
  RHS range        [1e+00, 1e+00]
Found heuristic solution: objective 192
Presolve removed 0 rows and 6 columns
Presolve time: 0.00s
Presolved: 10 rows, 30 columns, 50 nonzeros
Variable types: 0 continuous, 30 integer (30 binary)

Root relaxation: objective 7.200000e+01, 10 iterations, 0.00 seconds

    Nodes    |    Current Node    |     Objective Bounds      |     Work
 Expl Unexpl |  Obj  Depth IntInf | Incumbent    BestBd   Gap | It/Node Time

*    0     0               0      72.0000000   72.00000  0.00%     -    0s

Explored 0 nodes (10 simplex iterations) in 0.07 seconds
Thread count was 4 (of 4 available processors)

Solution count 2: 72 192 
Pool objective bound 72

Optimal solution found (tolerance 1.00e-04)
Best objective 7.200000000000e+01, best bound 7.200000000000e+01, gap 0.0000%
Optimize a model with 12 rows, 36 columns and 72 nonzeros
Variable types: 0 continuous, 36 integer (36 binary)
Coefficient statistics:
  Matrix range     [1e+00, 1e+00]
  Objective range  [9e+00, 1e+05]
  Bounds range     [1e+00, 1e+00]
  RHS range        [1e+00, 1e+00]
Found heuristic solution: objective 200076
Presolve time: 0.00s
Presolved: 12 rows, 36 columns, 72 nonzeros
Variable types: 0 continuous, 36 integer (36 binary)

Root relaxation: objective 7.400000e+01, 8 iterations, 0.00 seconds

    Nodes    |    Current Node    |     Objective Bounds      |     Work
 Expl Unexpl |  Obj  Depth IntInf | Incumbent    BestBd   Gap | It/Node Time

*    0     0               0      74.0000000   74.00000  0.00%     -    0s

Explored 0 nodes (8 simplex iterations) in 0.05 seconds
Thread count was 4 (of 4 available processors)

Solution count 2: 74 200076 
Pool objective bound 74

Optimal solution found (tolerance 1.00e-04)
Best objective 7.400000000000e+01, best bound 7.400000000000e+01, gap 0.0000%
Optimize a model with 12 rows, 36 columns and 72 nonzeros
Variable types: 0 continuous, 36 integer (36 binary)
Coefficient statistics:
  Matrix range     [1e+00, 1e+00]
  Objective range  [9e+00, 1e+05]
  Bounds range     [1e+00, 1e+00]
  RHS range        [1e+00, 1e+00]
Found heuristic solution: objective 200076
Presolve time: 0.00s
Presolved: 12 rows, 36 columns, 72 nonzeros
Variable types: 0 continuous, 36 integer (36 binary)

Root relaxation: objective 7.400000e+01, 8 iterations, 0.00 seconds

    Nodes    |    Current Node    |     Objective Bounds      |     Work
 Expl Unexpl |  Obj  Depth IntInf | Incumbent    BestBd   Gap | It/Node Time

*    0     0               0      74.0000000   74.00000  0.00%     -    0s

Explored 0 nodes (8 simplex iterations) in 0.07 seconds
Thread count was 4 (of 4 available processors)

Solution count 2: 74 200076 
Pool objective bound 74

Optimal solution found (tolerance 1.00e-04)
Best objective 7.400000000000e+01, best bound 7.400000000000e+01, gap 0.0000%

Gurobi 7.0.2 (win32, Python) logging started 08/15/17 07:33:53

Optimize a model with 42 rows, 36 columns and 127 nonzeros
Variable types: 0 continuous, 36 integer (36 binary)
Coefficient statistics:
  Matrix range     [1e+00, 2e+00]
  Objective range  [9e+00, 1e+05]
  Bounds range     [1e+00, 1e+00]
  RHS range        [1e+00, 1e+00]
Found heuristic solution: objective 117
Presolve removed 15 rows and 6 columns
Presolve time: 0.01s
Presolved: 27 rows, 30 columns, 90 nonzeros
Variable types: 0 continuous, 30 integer (30 binary)

Root relaxation: objective 8.000000e+01, 12 iterations, 0.00 seconds

    Nodes    |    Current Node    |     Objective Bounds      |     Work
 Expl Unexpl |  Obj  Depth IntInf | Incumbent    BestBd   Gap | It/Node Time

*    0     0               0      80.0000000   80.00000  0.00%     -    0s

Explored 0 nodes (12 simplex iterations) in 0.05 seconds
Thread count was 4 (of 4 available processors)

Solution count 2: 80 117 
Pool objective bound 80

Optimal solution found (tolerance 1.00e-04)
Best objective 8.000000000000e+01, best bound 8.000000000000e+01, gap 0.0000%
Optimize a model with 27 rows, 36 columns and 102 nonzeros
Variable types: 0 continuous, 36 integer (36 binary)
Coefficient statistics:
  Matrix range     [1e+00, 1e+00]
  Objective range  [9e+00, 1e+05]
  Bounds range     [1e+00, 1e+00]
  RHS range        [1e+00, 1e+00]
Found heuristic solution: objective 200064
Presolve time: 0.00s
Presolved: 27 rows, 36 columns, 117 nonzeros
Variable types: 0 continuous, 36 integer (36 binary)

Root relaxation: objective 8.000000e+01, 12 iterations, 0.00 seconds

    Nodes    |    Current Node    |     Objective Bounds      |     Work
 Expl Unexpl |  Obj  Depth IntInf | Incumbent    BestBd   Gap | It/Node Time

*    0     0               0      80.0000000   80.00000  0.00%     -    0s

Explored 0 nodes (12 simplex iterations) in 0.02 seconds
Thread count was 4 (of 4 available processors)

Solution count 2: 80 200064 
Pool objective bound 80

Optimal solution found (tolerance 1.00e-04)
Best objective 8.000000000000e+01, best bound 8.000000000000e+01, gap 0.0000%
Optimize a model with 27 rows, 36 columns and 102 nonzeros
Variable types: 0 continuous, 36 integer (36 binary)
Coefficient statistics:
  Matrix range     [1e+00, 1e+00]
  Objective range  [9e+00, 1e+05]
  Bounds range     [1e+00, 1e+00]
  RHS range        [1e+00, 1e+00]
Found heuristic solution: objective 200064
Presolve time: 0.00s
Presolved: 27 rows, 36 columns, 117 nonzeros
Variable types: 0 continuous, 36 integer (36 binary)

Root relaxation: objective 8.000000e+01, 12 iterations, 0.00 seconds

    Nodes    |    Current Node    |     Objective Bounds      |     Work
 Expl Unexpl |  Obj  Depth IntInf | Incumbent    BestBd   Gap | It/Node Time

*    0     0               0      80.0000000   80.00000  0.00%     -    0s

Explored 0 nodes (12 simplex iterations) in 0.02 seconds
Thread count was 4 (of 4 available processors)

Solution count 2: 80 200064 
Pool objective bound 80

Optimal solution found (tolerance 1.00e-04)
Best objective 8.000000000000e+01, best bound 8.000000000000e+01, gap 0.0000%

Gurobi 7.0.2 (win32, Python) logging started 08/15/17 08:17:30

Optimize a model with 7 rows, 12 columns and 24 nonzeros
Coefficient statistics:
  Matrix range     [1e+00, 1e+00]
  Objective range  [5e+00, 2e+01]
  Bounds range     [0e+00, 0e+00]
  RHS range        [2e+01, 5e+01]
Presolve time: 0.04s
Presolved: 7 rows, 12 columns, 24 nonzeros

Iteration    Objective       Primal Inf.    Dual Inf.      Time
       0    9.3000000e+02   1.200000e+02   0.000000e+00      0s
       3    1.0200000e+03   0.000000e+00   0.000000e+00      0s

Solved in 3 iterations and 0.06 seconds
Optimal objective  1.020000000e+03
Optimize a model with 7 rows, 12 columns and 24 nonzeros
Coefficient statistics:
  Matrix range     [1e+00, 1e+00]
  Objective range  [5e+00, 2e+01]
  Bounds range     [0e+00, 0e+00]
  RHS range        [2e+01, 5e+01]
Presolve time: 0.01s
Presolved: 7 rows, 12 columns, 24 nonzeros

Iteration    Objective       Primal Inf.    Dual Inf.      Time
       0    0.0000000e+00   1.250000e+02   0.000000e+00      0s
       7    1.0200000e+03   0.000000e+00   0.000000e+00      0s

Solved in 7 iterations and 0.03 seconds
Optimal objective  1.020000000e+03
